Problem:    
Rows:       256
Columns:    89 (72 integer, 72 binary)
Non-zeros:  924
Status:     INTEGER OPTIMAL
Objective:  value = 6.055311 (MINimum)

   No.   Row name        Activity     Lower bound   Upper bound
------ ------------    ------------- ------------- -------------
     1 r.5                   1030.06             0               
     2 r.6                  -1022.13      -1023.37               
     3 r.7                   6.05531             0               
     4 r.8                    5.8228      -1021.21               
     5 r.9                   1030.06             0               
     6 r.10                 -1022.76       -1023.3               
     7 r.11                  6.05531             0               
     8 r.12                   0.0518      -1020.33               
     9 r.13                  1030.06             0               
    10 r.14                 -1019.67      -1022.96               
    11 r.15                  6.05531             0               
    12 r.16                  4.32694      -1019.21               
    13 r.17                  1030.06             0               
    14 r.18                 -1023.45      -1023.51               
    15 r.19                  6.05531             0               
    16 r.20                   0.0518      -1020.94               
    17 r.21                  6.05531             0               
    18 r.22                  4.04361      -1023.26               
    19 r.23                  1030.06             0               
    20 r.24                 -1019.96      -1020.66               
    21 r.25                  6.05531             0               
    22 r.26                  6.05531      -1022.24               
    23 r.27                  1030.06             0               
    24 r.28                 -1017.94      -1021.99               
    25 r.29                  1030.06             0               
    26 r.30                 -1017.94      -1022.27               
    27 r.31                  6.05531             0               
    28 r.32                  6.05531      -1021.65               
    29 r.33                  1030.06             0               
    30 r.34                 -1023.95      -1023.95               
    31 r.35                  6.05531             0               
    32 r.36                   0.0518      -1022.12               
    33 r.37                        1             1             = 
    34 r.38                        1             1             = 
    35 r.39                        1             1             = 
    36 r.40                        1             1             = 
    37 r.41                        1             1             = 
    38 r.42                        1             1             = 
    39 r.43                        1             1             = 
    40 r.44                        1             1             = 
    41 r.45                        2             2               
    42 r.46                       -2         -1025               
    43 r.47                 -2.04994       -1023.3               
    44 r.48                     1024             2               
    45 r.49                    -1024         -1025               
    46 r.50                  2044.01      -1020.33               
    47 r.51                        2             2               
    48 r.52                       -2         -1025               
    49 r.53                 -1022.96      -1022.96               
    50 r.54                     1024             2               
    51 r.55                    -1024         -1025               
    52 r.56                  2048.28      -1019.21               
    53 r.57                        2             2               
    54 r.58                       -2         -1025               
    55 r.59                 -2.74604      -1023.51               
    56 r.60                     1024             2               
    57 r.61                    -1024         -1025               
    58 r.62                  2044.01      -1020.94               
    59 r.63                     1025             2               
    60 r.64                    -1025         -1025               
    61 r.65                  2048.75      -1023.26               
    62 r.66                     1025             2               
    63 r.67                    -1025         -1025               
    64 r.68                     2048      -1020.66               
    65 r.69                  2.76381      -1022.24               
    66 r.70                 -1021.24      -1021.99               
    67 r.71                   2.0117      -1022.24               
    68 r.72                 -1021.99      -1021.99               
    69 r.73                        2             2               
    70 r.74                       -2         -1025               
    71 r.75                 -1021.24      -1022.27               
    72 r.76                     1024             2               
    73 r.77                    -1024         -1025               
    74 r.78                  2050.01      -1021.65               
    75 r.79                  1.18976             0               
    76 r.80                    5.771             0               
    77 r.81                  1.18976             0               
    78 r.82                    5.771             0               
    79 r.83                        2             2               
    80 r.84                       -2         -1025               
    81 r.85                 0.628022      0.628022               
    82 r.86                     1024             2               
    83 r.87                    -1024         -1025               
    84 r.88                  2053.77       2.78668               
    85 r.89                        2             2               
    86 r.90                       -2         -1025               
    87 r.91                 -1020.91      -1022.96               
    88 r.92                     1024             2               
    89 r.93                    -1024         -1025               
    90 r.94                  2052.28      -1019.21               
    91 r.95                        2             2               
    92 r.96                       -2         -1025               
    93 r.97                -0.696103      -1023.51               
    94 r.98                     1024             2               
    95 r.99                    -1024         -1025               
    96 r.100                    2048      -1020.94               
    97 r.101                    1025             2               
    98 r.102                   -1025         -1025               
    99 r.103                  2050.8      -1023.26               
   100 r.104                    1025             2               
   101 r.105                   -1025         -1025               
   102 r.106                 2051.99      -1020.66               
   103 r.107                    1025             2               
   104 r.108                   -1025         -1025               
   105 r.109                 2052.81      -1022.24               
   106 r.110                    1025             2               
   107 r.111                   -1025         -1025               
   108 r.112                    2054      -1021.99               
   109 r.113                -1019.19      -1022.27               
   110 r.114                 4.81375      -1021.65               
   111 r.115                   -1018      -1022.27               
   112 r.116                 6.00351      -1021.65               
   113 r.117                0.493656             0               
   114 r.118                       0             0               
   115 r.119                0.493656             0               
   116 r.120                       0             0               
   117 r.121                       2             2               
   118 r.122                      -2         -1025               
   119 r.123                 1021.54      0.628022               
   120 r.124                    1024             2               
   121 r.125                   -1024         -1025               
   122 r.126                  2049.5       2.78668               
   123 r.127                       2             2               
   124 r.128                      -2         -1025               
   125 r.129                 1020.91      0.696103               
   126 r.130                    1024             2               
   127 r.131                   -1024         -1025               
   128 r.132                 2043.72        3.6726               
   129 r.133                 2.74604             0               
   130 r.134                 3.78149             0               
   131 r.135                  3.2397             0               
   132 r.136                 4.27514             0               
   133 r.137                    1025             2               
   134 r.138                   -1025         -1025               
   135 r.139                 2047.72      -1023.26               
   136 r.140                    1025             2               
   137 r.141                   -1025         -1025               
   138 r.142                 2047.72      -1020.66               
   139 r.143                    1025             2               
   140 r.144                   -1025         -1025               
   141 r.145                 2049.73      -1022.24               
   142 r.146                    1025             2               
   143 r.147                   -1025         -1025               
   144 r.148                 2049.73      -1021.99               
   145 r.149                -1022.27      -1022.27               
   146 r.150                 1.72837      -1021.65               
   147 r.151                -1022.27      -1022.27               
   148 r.152                 1.72837      -1021.65               
   149 r.153                  3.2397             0               
   150 r.154                 4.27514             0               
   151 r.155                  3.2397             0               
   152 r.156                 4.27514             0               
   153 r.157                       2             2               
   154 r.158                      -2         -1025               
   155 r.159                 1.32412      0.628022               
   156 r.160                    1024             2               
   157 r.161                   -1024         -1025               
   158 r.162                 2053.77       2.78668               
   159 r.163                       2             2               
   160 r.164                      -2         -1025               
   161 r.165                0.696103      0.696103               
   162 r.166                    1024             2               
   163 r.167                   -1024         -1025               
   164 r.168                    2048        3.6726               
   165 r.169                    1025             2               
   166 r.170                   -1025         -1025               
   167 r.171                  2051.5      -1023.26               
   168 r.172                    1025             2               
   169 r.173                   -1025         -1025               
   170 r.174                 2051.99      -1020.66               
   171 r.175                    1025             2               
   172 r.176                   -1025         -1025               
   173 r.177                 2053.51      -1022.24               
   174 r.178                    1025             2               
   175 r.179                   -1025         -1025               
   176 r.180                    2054      -1021.99               
   177 r.181                -1018.49      -1022.27               
   178 r.182                 5.50986      -1021.65               
   179 r.183                   -1018      -1022.27               
   180 r.184                 6.00351      -1021.65               
   181 r.185                       0             0               
   182 r.186                       0             0               
   183 r.187                       0             0               
   184 r.188                       0             0               
   185 r.189                    1025             2               
   186 r.190                   -1025         -1025               
   187 r.191                 2045.83      0.628022               
   188 r.192                    1025             2               
   189 r.193                   -1025         -1025               
   190 r.194                 2049.78       2.78668               
   191 r.195                    1025             2               
   192 r.196                   -1025         -1025               
   193 r.197                  2045.2      0.696103               
   194 r.198                    1025             2               
   195 r.199                   -1025         -1025               
   196 r.200                 2044.01        3.6726               
   197 r.201                    1025             2               
   198 r.202                   -1025         -1025               
   199 r.203                 2048.28       1.03544               
   200 r.204                    1025             2               
   201 r.205                   -1025         -1025               
   202 r.206                 2048.28       4.78687               
   203 r.207                    1025             2               
   204 r.208                   -1025         -1025               
   205 r.209                  2044.5      0.493656               
   206 r.210                    1025             2               
   207 r.211                   -1025         -1025               
   208 r.212                 2044.01       3.06257               
   209 r.213                  2.0117      -1022.24               
   210 r.214                -1021.99      -1021.99               
   211 r.215                  2.0117      -1022.24               
   212 r.216                -1021.99      -1021.99               
   213 r.217                -1021.99      -1022.27               
   214 r.218                  2.0117      -1021.65               
   215 r.219                -1021.99      -1022.27               
   216 r.220                  2.0117      -1021.65               
   217 r.221                 3.99181             0               
   218 r.222                0.648467             0               
   219 r.223                 3.99181             0               
   220 r.224                0.648467             0               
   221 r.225                    1025             2               
   222 r.226                   -1025         -1025               
   223 r.227                 2043.19      0.696103               
   224 r.228                    1025             2               
   225 r.229                   -1025         -1025               
   226 r.230                    2042        3.6726               
   227 r.231                    1025             2               
   228 r.232                   -1025         -1025               
   229 r.233                 2046.27       1.03544               
   230 r.234                    1025             2               
   231 r.235                   -1025         -1025               
   232 r.236                 2046.27       4.78687               
   233 r.237                    1025             2               
   234 r.238                   -1025         -1025               
   235 r.239                 2042.49      0.493656               
   236 r.240                    1025             2               
   237 r.241                   -1025         -1025               
   238 r.242                    2042       3.06257               
   239 r.243                    1025             2               
   240 r.244                   -1025         -1025               
   241 r.245                    2048      -1022.27               
   242 r.246                    1025             2               
   243 r.247                   -1025         -1025               
   244 r.248                    2048      -1021.65               
   245 r.249                       2             2               
   246 r.250                      -2         -1025               
   247 r.251                 1019.81      0.628022               
   248 r.252                    1024             2               
   249 r.253                   -1024         -1025               
   250 r.254                 2047.77       2.78668               
   251 r.255                    1025             2               
   252 r.256                   -1025         -1025               
   253 r.257                    2048       1.75773               
   254 r.258                    1025             2               
   255 r.259                   -1025         -1025               
   256 r.260                    2048        2.0117               

   No. Column name       Activity     Lower bound   Upper bound
------ ------------    ------------- ------------- -------------
     1 tt                    6.05531             0               
     2 s_1_1        *              1             0             1 
     3 t_1_1                 2.76381             0               
     4 s_1_6        *              0             0             1 
     5 s_2_1        *              0             0             1 
     6 t_2_1                  2.0117             0               
     7 s_2_6        *              1             0             1 
     8 s_1_2        *              1             0             1 
     9 t_1_2                 4.81375             0               
    10 s_1_7        *              1             0             1 
    11 s_2_2        *              0             0             1 
    12 t_2_2                 6.00351             0               
    13 s_2_7        *              0             0             1 
    14 s_1_3        *              1             0             1 
    15 t_1_3                 1.72837             0               
    16 s_2_3        *              0             0             1 
    17 t_2_3                 1.72837             0               
    18 s_1_4        *              1             0             1 
    19 t_1_4                 5.50986             0               
    20 s_2_4        *              0             0             1 
    21 t_2_4                 6.00351             0               
    22 s_1_5        *              0             0             1 
    23 t_1_5                  2.0117             0               
    24 s_2_5        *              1             0             1 
    25 t_2_5                  2.0117             0               
    26 t_1_6                       0             0               
    27 t_2_6                       0             0               
    28 t_1_7                       0             0               
    29 t_2_7                       0             0               
    30 s_1_8        *              1             0             1 
    31 t_1_8                 6.00351             0               
    32 s_2_8        *              0             0             1 
    33 t_2_8                 6.00351             0               
    34 r_1_1_2      *              0             0             1 
    35 u_1_1_2      *              0             0             1 
    36 r_2_1_2      *              1             0             1 
    37 u_2_1_2      *              0             0             1 
    38 r_1_1_3      *              0             0             1 
    39 u_1_1_3      *              1             0             1 
    40 r_2_1_3      *              1             0             1 
    41 u_2_1_3      *              0             0             1 
    42 r_1_1_4      *              0             0             1 
    43 u_1_1_4      *              0             0             1 
    44 r_2_1_4      *              1             0             1 
    45 u_2_1_4      *              0             0             1 
    46 r_1_1_5      *              1             0             1 
    47 u_1_1_5      *              0             0             1 
    48 r_2_1_5      *              1             0             1 
    49 u_2_1_5      *              0             0             1 
    50 r_1_1_7      *              0             0             1 
    51 u_1_1_7      *              1             0             1 
    52 r_2_1_7      *              1             0             1 
    53 u_2_1_7      *              0             0             1 
    54 r_1_2_3      *              0             0             1 
    55 u_1_2_3      *              1             0             1 
    56 r_2_2_3      *              1             0             1 
    57 u_2_2_3      *              0             0             1 
    58 r_1_2_4      *              0             0             1 
    59 u_1_2_4      *              0             0             1 
    60 r_2_2_4      *              1             0             1 
    61 u_2_2_4      *              0             0             1 
    62 r_1_2_5      *              1             0             1 
    63 u_1_2_5      *              0             0             1 
    64 r_2_2_5      *              1             0             1 
    65 u_2_2_5      *              0             0             1 
    66 r_1_2_6      *              1             0             1 
    67 u_1_2_6      *              0             0             1 
    68 r_2_2_6      *              1             0             1 
    69 u_2_2_6      *              0             0             1 
    70 r_1_3_5      *              1             0             1 
    71 u_1_3_5      *              0             0             1 
    72 r_2_3_5      *              1             0             1 
    73 u_2_3_5      *              0             0             1 
    74 r_1_3_6      *              1             0             1 
    75 u_1_3_6      *              0             0             1 
    76 r_2_3_6      *              1             0             1 
    77 u_2_3_6      *              0             0             1 
    78 r_1_4_5      *              1             0             1 
    79 u_1_4_5      *              0             0             1 
    80 r_2_4_5      *              1             0             1 
    81 u_2_4_5      *              0             0             1 
    82 r_1_4_6      *              1             0             1 
    83 u_1_4_6      *              0             0             1 
    84 r_2_4_6      *              1             0             1 
    85 u_2_4_6      *              0             0             1 
    86 r_1_6_7      *              1             0             1 
    87 u_1_6_7      *              0             0             1 
    88 r_2_6_7      *              1             0             1 
    89 u_2_6_7      *              0             0             1 

Integer feasibility conditions:

KKT.PE: max.abs.err = 2.27e-13 on row 2
        max.rel.err = 1.11e-16 on row 10
        High quality

KKT.PB: max.abs.err = 3.33e-16 on row 81
        max.rel.err = 2.05e-16 on row 81
        High quality

End of output
